p cnf 100 30
x 1 -2 3 -13 -16 -17 -21 -22 25 -31 -32 33 34 35 -36 -40 -41 42 -48 49 -53 57 58 59 60 62 -63 -64 65 66 -68 73 -77 -78 82 86 -90 -92 -93 -96 97 98 0
x 1 -3 -6 7 8 11 12 -13 15 16 18 -19 20 -22 24 25 -26 27 -29 31 -32 -35 38 -39 -41 42 43 45 -48 -49 50 -51 53 54 55 -58 -59 -61 62 -63 66 -67 68 71 72 75 -77 79 80 84 88 89 90 -96 -97 98 99 -100 0
x 3 -10 12 13 14 -17 18 23 -24 25 30 32 35 -39 -40 41 -42 43 -44 45 46 53 -54 -58 -59 60 -61 64 -65 66 67 70 71 -72 -73 -74 -75 -76 -77 -78 80 -81 82 -83 -85 -86 -87 88 -89 90 97 100 0
x -1 4 -6 7 -8 9 13 -14 15 -18 -23 -26 -29 -31 33 -34 36 -40 41 42 -43 48 52 -56 58 -59 63 66 -67 -68 69 -71 72 74 76 78 84 -86 92 -94 97 99 0
x 1 -2 -3 5 9 10 -11 14 16 -17 20 -21 25 29 38 -39 40 43 44 -45 -48 52 55 -56 -57 -58 -59 -62 63 66 69 72 -73 -79 -80 81 -83 -86 89 91 -95 -99 0
x -4 6 7 -9 -12 -16 18 -19 20 -22 -24 -25 -26 -28 30 -34 36 -37 38 39 52 -60 -61 -62 63 -65 -67 -68 -69 70 71 72 74 -76 -78 79 83 -84 -91 92 -94 96 -98 0
x -5 -8 -9 -10 -12 13 -17 19 20 -24 -28 29 -31 33 -36 -37 42 -43 -47 -49 50 -52 -55 -58 59 63 -64 -65 72 73 -74 -78 81 -84 85 -87 -88 -91 92 95 -96 99 -100 0
x 1 -2 4 -5 -6 -8 -11 17 18 19 -23 24 -26 -27 -32 -34 35 -39 -41 -42 -43 -47 -49 -50 52 57 -58 -59 62 65 67 -69 71 73 76 -81 -82 -83 84 -85 -89 90 -91 -92 -93 -94 -97 -98 0
x -1 -3 -6 7 10 13 16 -17 -18 19 -21 22 25 -26 27 -28 33 34 -36 -37 39 40 44 -47 48 51 -53 -54 55 -58 62 -65 -66 -68 70 74 75 76 80 -81 82 85 86 -87 88 91 -93 -95 -97 0
x -1 2 3 7 8 -9 10 11 15 -17 19 20 -22 -24 -26 27 -29 -30 -32 -33 -36 38 -39 40 41 47 48 49 50 52 -53 58 59 60 61 62 -63 64 65 -66 -68 -70 74 75 -80 83 85 90 92 100 0
x 2 3 4 -6 -10 -11 -15 -19 21 -22 -23 26 27 -32 33 36 37 -39 40 41 45 -47 -50 51 -54 55 58 -61 62 63 65 -68 -69 -70 -76 -79 83 86 88 89 -92 -93 -94 -95 96 97 0
x -1 2 4 6 8 -9 -11 12 -13 -16 19 -20 23 24 -26 -27 -29 -30 -31 -32 -33 -34 36 40 -42 43 -44 -45 -46 -50 -52 -53 -57 -58 59 60 -63 66 70 -75 78 -79 81 -82 -86 -88 -89 -91 92 93 -96 -98 -99 100 0
x 1 3 7 9 -10 14 19 -23 -26 27 -31 32 -35 38 39 -40 -44 -47 52 -57 58 64 -65 -66 -67 -69 -70 -71 -72 -73 75 -76 -77 80 -81 -82 -85 -87 -94 -95 96 -98 0
x -2 -3 -4 -5 -6 11 -12 13 -14 15 -18 21 -22 -24 25 -35 -37 -38 39 -41 -43 -50 -51 -55 -56 57 -59 -60 61 -62 63 64 65 -66 -67 -69 70 71 -72 75 -76 -77 -79 80 -83 84 -88 89 -90 -92 93 -94 -95 -97 98 0
x -1 -2 -5 -8 -9 -11 -12 -13 15 16 -18 -22 26 -27 29 31 -32 -33 -35 -36 38 39 43 -44 -45 -46 47 49 -51 52 56 60 61 62 63 67 70 -72 73 -78 80 -81 82 -86 -88 -92 95 -97 99 100 0
x 3 4 -14 -16 18 19 21 23 25 27 30 32 -33 34 -35 -37 -38 39 -40 41 -42 45 47 48 -49 50 -55 -56 57 -58 -59 -61 -63 64 -65 66 71 -72 -75 -76 -77 79 -80 -81 82 -83 -84 85 -86 -87 88 -90 -91 93 94 -98 99 100 0
x 1 3 5 6 8 10 -11 13 -14 -16 18 21 24 -25 -26 30 -32 -34 35 37 38 -40 -42 -46 47 -52 55 -58 59 61 -64 67 69 -73 74 -76 -77 -79 82 -84 85 87 -88 -89 -90 91 92 94 -95 97 -98 -99 100 0
x -3 5 9 11 -12 13 -14 -17 -18 -20 -22 28 -29 31 -32 -35 38 -39 -40 42 44 46 -47 49 52 -61 62 -63 -64 -66 67 68 69 70 -72 -74 76 -77 -80 -81 -84 85 -87 88 -91 -94 -95 99 0
x 2 5 6 -7 9 -12 -13 -15 16 -18 20 -23 28 30 32 -35 -36 37 39 -40 -41 -44 45 46 47 -48 -49 -50 -51 53 -55 -56 59 62 64 -66 67 69 -71 72 75 77 78 79 84 85 -86 -88 -93 -95 97 -98 99 100 0
x 3 -4 -6 -7 9 10 -18 22 -27 28 -30 33 34 -35 -36 -37 -38 40 -41 -43 44 45 47 50 51 52 53 55 59 -62 64 65 66 67 69 70 -73 75 -76 -77 -82 83 -85 -86 88 91 -92 -93 94 -97 100 0
x 1 2 5 8 -10 11 12 -13 -14 -15 -16 19 -21 22 24 25 26 -27 -29 -30 32 34 -37 -38 39 -40 42 -43 -44 45 -46 47 48 53 -55 56 58 -59 60 62 -63 -65 -68 -69 72 75 77 78 -80 82 -84 85 -86 87 -88 89 -91 92 94 -97 99 0
x -1 2 4 -7 10 -12 13 14 15 16 -17 -21 22 -24 -29 30 34 -35 38 39 40 41 -42 -45 -50 53 54 55 -64 65 -66 -67 -69 -70 -71 -72 73 -75 -79 80 82 -85 -88 -89 90 -91 92 -100 0
x -2 3 6 -7 10 11 12 -13 -14 -15 17 19 -20 21 22 23 -24 -25 -26 -27 -28 -32 -33 34 -39 41 42 44 -50 -51 56 58 61 62 -63 64 -65 67 68 69 -70 -75 -78 79 80 -81 84 -85 -86 -89 -91 -92 -93 -95 -96 -98 -99 100 0
x -1 5 -6 9 11 12 -13 -17 19 20 -23 24 25 26 -29 30 -39 40 41 46 -51 -52 -56 -57 59 -62 63 64 -69 72 75 -76 -80 -82 83 -85 87 -91 92 94 95 -96 0
x 1 2 5 -9 12 14 -15 -18 -20 27 28 -29 -30 31 32 -36 37 -38 -40 41 44 45 46 49 51 -53 -54 57 65 -69 73 -79 82 83 86 -87 -89 -95 -97 100 0
x 5 6 7 9 11 -12 14 17 -19 20 23 24 -27 30 -34 -40 -45 47 49 52 -55 -60 -61 -62 -63 -65 -66 69 71 -73 -74 -75 -76 77 81 84 87 88 -92 -93 96 97 0
x -5 8 -12 14 -17 -21 -25 -26 -28 -30 -31 -34 36 37 -39 -40 -41 -43 -45 -47 48 54 -55 -57 60 -62 -63 69 -70 -73 76 77 79 -80 83 -86 89 92 93 94 95 -96 -97 98 -99 0
x 3 -8 10 -13 15 -17 19 -29 32 34 -36 -38 41 42 -43 47 51 -55 59 -60 -62 -63 65 66 -67 -69 71 -77 78 -82 83 85 -86 88 -89 -90 -92 95 98 -99 -100 0
x -1 2 3 -5 -7 8 16 19 21 24 -26 -29 30 -31 33 -34 35 36 -37 38 -39 42 43 -44 -45 46 -47 49 50 51 52 53 54 55 56 -57 58 -59 -61 -64 68 -69 75 76 -77 -78 79 81 82 83 -85 86 87 90 -91 -94 0
x -1 2 3 4 -6 -7 -9 -10 -11 13 -14 15 -16 20 -21 22 -23 -24 25 -26 27 -28 30 -36 38 41 -42 -43 44 -46 47 -48 50 53 -56 60 62 -64 66 -67 -72 73 -78 79 -82 -84 90 -91 -92 93 0
g -40